=======
Route #1: 0 88 34 18 92 80 0
Route #2: 0 68 93 38 70 57 0
Route #3: 0 98 3 79 90 37 0
Route #4: 0 78 7 77 47 0
Route #5: 0 58 49 30 45 17 1 89 0
Route #6: 0 27 36 62 66 65 94 24 0
Route #7: 0 22 33 15 28 41 0
Route #8: 0 43 76 69 0
Route #9: 0 42 12 20 39 14 56 0
Route #10: 0 4 26 91 35 9 53 0
Route #11: 0 16 6 19 31 51 74 82 21 55 0
Route #12: 0 29 75 32 10 72 0
Route #13: 0 60 86 2 52 23 87 59 46 71 50 0
Route #14: 0 96 40 8 81 61 11 5 0
Route #15: 0 83 48 97 95 44 99 13 0
Route #16: 0 67 85 25 54 0
Route #17: 0 64 84 73 63 0
>>>>>>> Stashed changes
